p edge 50 323 15
v 3 4 5 14
v 2 29 30
v 3 12 47 50
v 5 2 13 16 26 39
v 5 1 11 19 23 25
v 5 9 24 36 38 43
v 5 6 17 18 22 45
v 2 31 37
v 4 27 35 41 44
v 3 10 33 49
v 3 7 32 34
v 2 15 40
v 5 8 20 21 28 42
v 2 3 46
v 1 48
e 1 2
e 1 5
e 1 8
e 1 15
e 1 21
e 1 30
e 1 32
e 1 33
e 1 35
e 1 43
e 1 44
e 1 46
e 1 47
e 1 48
e 1 50
e 2 6
e 2 11
e 2 15
e 2 16
e 2 17
e 2 26
e 2 27
e 2 32
e 2 34
e 2 40
e 2 44
e 2 47
e 3 6
e 3 7
e 3 10
e 3 11
e 3 12
e 3 14
e 3 23
e 3 25
e 3 28
e 3 34
e 3 36
e 3 37
e 3 41
e 3 44
e 3 45
e 4 6
e 4 8
e 4 10
e 4 14
e 4 17
e 4 25
e 4 26
e 4 28
e 4 29
e 4 30
e 4 35
e 4 37
e 4 38
e 4 41
e 4 42
e 4 44
e 4 46
e 4 47
e 4 50
e 5 6
e 5 11
e 5 21
e 5 22
e 5 33
e 5 36
e 5 39
e 5 40
e 6 8
e 6 12
e 6 13
e 6 24
e 6 26
e 6 28
e 6 30
e 6 31
e 6 35
e 6 38
e 6 40
e 6 45
e 6 47
e 7 14
e 7 15
e 7 29
e 7 31
e 7 37
e 7 38
e 7 43
e 7 44
e 7 47
e 7 48
e 7 50
e 8 13
e 8 17
e 8 26
e 8 28
e 8 30
e 8 33
e 8 43
e 8 45
e 9 10
e 9 13
e 9 15
e 9 17
e 9 19
e 9 22
e 9 30
e 9 33
e 9 39
e 9 41
e 9 48
e 9 50
e 10 13
e 10 15
e 10 17
e 10 21
e 10 22
e 10 24
e 10 26
e 10 27
e 10 29
e 10 31
e 10 32
e 10 34
e 10 35
e 10 39
e 10 40
e 10 43
e 10 49
e 11 16
e 11 20
e 11 33
e 11 36
e 11 39
e 11 50
e 12 13
e 12 15
e 12 16
e 12 23
e 12 25
e 12 29
e 12 30
e 12 35
e 12 40
e 12 42
e 12 43
e 12 50
e 13 17
e 13 19
e 13 20
e 13 24
e 13 33
e 13 38
e 13 39
e 13 40
e 13 42
e 13 43
e 13 47
e 13 48
e 13 50
e 14 15
e 14 25
e 14 30
e 14 38
e 15 27
e 15 28
e 15 29
e 15 30
e 15 32
e 15 34
e 15 35
e 15 40
e 15 41
e 15 43
e 15 45
e 15 50
e 16 24
e 16 30
e 16 35
e 16 39
e 16 41
e 16 47
e 17 24
e 17 27
e 17 32
e 17 35
e 17 39
e 17 40
e 17 45
e 17 47
e 18 19
e 18 22
e 18 23
e 18 25
e 18 26
e 18 31
e 18 33
e 18 44
e 18 49
e 19 20
e 19 22
e 19 25
e 19 26
e 19 29
e 19 36
e 19 49
e 20 22
e 20 24
e 20 31
e 20 32
e 20 38
e 20 39
e 20 48
e 20 50
e 21 24
e 21 26
e 21 35
e 21 41
e 21 43
e 21 46
e 21 48
e 21 50
e 22 27
e 22 33
e 22 34
e 22 35
e 22 39
e 22 46
e 23 25
e 23 27
e 23 31
e 23 39
e 23 41
e 23 48
e 24 25
e 24 37
e 24 39
e 24 41
e 24 46
e 25 39
e 25 40
e 26 48
e 27 29
e 27 30
e 27 33
e 27 35
e 27 38
e 27 40
e 27 43
e 27 44
e 27 47
e 28 29
e 28 40
e 28 43
e 28 45
e 28 47
e 28 50
e 29 30
e 29 31
e 29 32
e 29 33
e 29 47
e 29 49
e 29 50
e 30 31
e 30 38
e 30 47
e 30 48
e 30 49
e 30 50
e 31 32
e 31 33
e 31 36
e 31 38
e 31 39
e 31 41
e 31 42
e 31 44
e 31 45
e 31 47
e 31 49
e 32 37
e 32 39
e 32 42
e 33 37
e 33 39
e 33 41
e 33 46
e 33 50
e 34 41
e 35 38
e 35 43
e 35 44
e 35 47
e 35 48
e 36 44
e 36 48
e 36 49
e 37 40
e 37 41
e 37 48
e 37 50
e 38 39
e 38 41
e 38 45
e 38 47
e 38 48
e 39 41
e 39 47
e 40 44
e 40 48
e 40 49
e 41 45
e 42 43
e 42 46
e 42 50
e 43 46
e 44 47
e 45 46
e 45 47
e 46 50
e 48 50
